* ENCODING=ISO-8859-1
NAME          CPLEX
ROWS
 N  obj1    
 G  c1      
 G  c2      
 G  c3      
 G  c4      
 G  c5      
 G  c6      
 G  c7      
 G  c8      
 G  c9      
 G  c10     
 G  c11     
 G  c12     
 G  c13     
 G  c14     
 G  c15     
 G  c16     
 G  c17     
 G  c18     
 G  c19     
 G  c20     
 G  c21     
 G  c22     
 G  c23     
 G  c24     
 G  c25     
 G  c26     
 G  c27     
 G  c28     
 G  c29     
 G  c30     
 G  c31     
 G  c32     
 G  c33     
 G  c34     
 G  c35     
 G  c36     
 G  c37     
 G  c38     
 G  c39     
 G  c40     
 G  c41     
 G  c42     
 G  c43     
 G  c44     
 G  c45     
 G  c46     
 G  c47     
 G  c48     
 G  c49     
 G  c50     
 G  c51     
 G  c52     
 G  c53     
 G  c54     
 G  c55     
 G  c56     
 G  c57     
 G  c58     
 G  c59     
 G  c60     
 G  c61     
 G  c62     
 G  c63     
 G  c64     
 G  c65     
 G  c66     
 G  c67     
 G  c68     
 G  c69     
 G  c70     
COLUMNS
    MARK0000  'MARKER'                 'INTORG'
    x1        obj1                            1
    x1        c13                           322
    x1        c18                           222
    x1        c22                           590
    x1        c39                           790
    x1        c51                           371
    x1        c65                           126
    x1        c67                           228
    x2        obj1                            1
    x2        c3                            260
    x2        c13                           697
    x2        c25                           273
    x2        c43                           498
    x2        c51                           632
    x2        c60                           208
    x2        c63                           900
    x2        c70                           503
    x3        obj1                            1
    x3        c16                           304
    x3        c34                           532
    x3        c42                           431
    x3        c45                           524
    x3        c54                           333
    x4        obj1                            1
    x4        c18                           449
    x4        c20                           355
    x4        c28                           707
    x4        c31                           973
    x4        c34                           266
    x4        c38                           221
    x4        c46                           766
    x4        c47                           578
    x4        c50                           277
    x4        c53                           654
    x4        c66                           874
    x5        obj1                            1
    x5        c1                            785
    x5        c24                           449
    x5        c25                           922
    x5        c46                           791
    x5        c52                           408
    x6        obj1                            1
    x6        c5                            229
    x6        c10                           842
    x6        c12                           171
    x6        c14                           757
    x6        c26                           347
    x6        c36                           985
    x6        c43                           521
    x6        c47                           250
    x7        obj1                            1
    x7        c22                           488
    x7        c23                           942
    x7        c36                           425
    x7        c39                           701
    x7        c53                           826
    x7        c67                           550
    x8        obj1                            1
    x8        c23                           661
    x8        c24                           994
    x8        c29                           731
    x8        c39                           118
    x8        c44                           812
    x8        c53                           564
    x8        c64                           426
    x8        c69                           598
    x9        obj1                            1
    x9        c6                            739
    x9        c29                           783
    x9        c36                           216
    x9        c56                           795
    x9        c58                           909
    x9        c59                           685
    x9        c66                           847
    x10       obj1                            1
    x10       c1                            815
    x10       c3                            658
    x10       c4                            185
    x10       c9                            581
    x10       c17                           776
    x10       c29                           833
    x10       c36                           419
    x10       c48                           342
    x10       c58                           667
    x10       c70                           928
    x11       obj1                            1
    x11       c23                           505
    x11       c28                           221
    x11       c42                           859
    x11       c49                           301
    x11       c67                           701
    x12       obj1                            1
    x12       c19                           982
    x12       c21                           316
    x12       c38                           859
    x12       c52                           775
    x12       c57                           520
    x12       c65                           972
    x13       obj1                            1
    x13       c8                            850
    x13       c11                           794
    x13       c19                           188
    x13       c23                           676
    x13       c27                           615
    x13       c42                           175
    x13       c58                           118
    x13       c65                           941
    x13       c68                           294
    x14       obj1                            1
    x14       c25                           811
    x14       c35                           107
    x14       c37                           339
    x14       c45                           508
    x14       c67                           618
    x15       obj1                            1
    x15       c8                            144
    x15       c14                           693
    x15       c27                           848
    x15       c28                           392
    x15       c31                           652
    x15       c35                           344
    x15       c42                           976
    x15       c54                           848
    x15       c57                           615
    x16       obj1                            1
    x16       c12                           556
    x16       c19                           457
    x16       c22                           997
    x16       c37                           668
    x16       c47                           446
    x16       c51                           498
    x17       obj1                            1
    x17       c5                            474
    x17       c10                           677
    x17       c14                           205
    x17       c17                           396
    x17       c32                           364
    x17       c35                           532
    x17       c46                           473
    x17       c50                           328
    x17       c57                           833
    x17       c58                           336
    x17       c60                           387
    x18       obj1                            1
    x18       c8                            884
    x18       c11                           407
    x18       c13                           371
    x18       c27                           412
    x18       c39                           319
    x18       c41                           356
    x18       c61                           165
    x19       obj1                            1
    x19       c19                           603
    x19       c20                           213
    x19       c24                           604
    x19       c37                           529
    x19       c41                           246
    x19       c44                           910
    x19       c62                           919
    x19       c65                           712
    x20       obj1                            1
    x20       c2                            203
    x20       c17                           143
    x20       c19                           263
    x20       c21                           406
    x20       c25                           922
    x20       c36                           246
    x20       c37                           482
    x20       c48                           597
    x20       c67                           438
    x21       obj1                            1
    x21       c11                           453
    x21       c69                           500
    x22       obj1                            1
    x22       c29                           932
    x22       c35                           905
    x22       c57                           217
    x22       c60                           985
    x23       obj1                            1
    x23       c5                            841
    x23       c8                            922
    x23       c43                           260
    x23       c53                           918
    x23       c64                           262
    x23       c68                           106
    x24       obj1                            1
    x24       c16                           932
    x24       c25                           134
    x24       c28                           740
    x24       c36                           434
    x24       c38                           245
    x24       c62                           295
    x25       obj1                            1
    x25       c1                            304
    x25       c2                            719
    x25       c5                            696
    x25       c7                            351
    x25       c11                           165
    x25       c13                           387
    x25       c14                           346
    x25       c18                           609
    x25       c23                           189
    x25       c24                           899
    x25       c44                           310
    x25       c46                           868
    x25       c53                           157
    x25       c54                           612
    x25       c66                           539
    x26       obj1                            1
    x26       c5                            942
    x26       c8                            577
    x26       c18                           234
    x26       c36                           833
    x26       c37                           249
    x26       c55                           141
    x26       c62                           194
    x27       obj1                            1
    x27       c16                           177
    x27       c51                           220
    x27       c54                           239
    x27       c57                           528
    x28       obj1                            1
    x28       c3                            599
    x28       c8                            103
    x28       c18                           109
    x28       c41                           708
    x28       c42                           554
    x28       c62                           547
    x28       c64                           529
    x28       c70                           803
    x29       obj1                            1
    x29       c11                           903
    x29       c30                           563
    x29       c48                           234
    x29       c50                           343
    x29       c70                           865
    x30       obj1                            1
    x30       c13                           154
    x30       c36                           782
    x30       c37                           610
    x30       c43                           855
    x30       c60                           782
    x30       c62                           146
    x31       obj1                            1
    x31       c8                            799
    x31       c19                           454
    x31       c28                           559
    x31       c37                           850
    x31       c52                           623
    x31       c55                           414
    x32       obj1                            1
    x32       c1                            560
    x32       c4                            960
    x32       c9                            690
    x32       c21                           297
    x32       c27                           493
    x32       c35                           365
    x32       c56                           741
    x33       obj1                            1
    x33       c4                            268
    x33       c7                            793
    x33       c43                           151
    x33       c46                           410
    x33       c56                           103
    x33       c64                           554
    x33       c65                           749
    x34       obj1                            1
    x34       c15                           519
    x34       c26                           881
    x34       c34                           998
    x34       c38                           347
    x34       c40                           479
    x34       c44                           481
    x34       c59                           564
    x34       c65                           768
    x35       obj1                            1
    x35       c20                           346
    x35       c23                           739
    x35       c34                           144
    x35       c48                           105
    x35       c50                           330
    x35       c59                           221
    x35       c60                           773
    x35       c61                           943
    x35       c65                           975
    x36       obj1                            1
    x36       c8                            440
    x36       c21                           674
    x36       c59                           774
    x36       c62                           355
    x37       obj1                            1
    x37       c4                            231
    x37       c15                           756
    x37       c27                           320
    x37       c39                           161
    x37       c47                           612
    x37       c53                           630
    x37       c56                           154
    x38       obj1                            1
    x38       c2                            473
    x38       c4                            926
    x38       c38                           421
    x38       c56                           943
    x38       c59                           497
    x38       c66                           238
    x38       c70                           207
    x39       obj1                            1
    x39       c2                            571
    x39       c11                           502
    x39       c15                           241
    x39       c20                           590
    x39       c45                           145
    x39       c46                           510
    x39       c56                           675
    x39       c68                           966
    x40       obj1                            1
    x40       c30                           457
    x40       c32                           661
    x40       c37                           546
    x40       c48                           219
    x40       c69                           930
    x41       obj1                            1
    x41       c13                           169
    x41       c16                           696
    x41       c19                           789
    x41       c25                           929
    x41       c27                           992
    x41       c46                           633
    x41       c56                           271
    x41       c57                           682
    x41       c58                           989
    x41       c61                           252
    x41       c63                           553
    x41       c69                           313
    x42       obj1                            1
    x42       c8                            297
    x42       c18                           367
    x42       c35                           448
    x42       c45                           914
    x42       c50                           976
    x42       c62                           855
    x43       obj1                            1
    x43       c10                           715
    x43       c13                           166
    x43       c21                           887
    x43       c36                           503
    x43       c38                           371
    x43       c42                           821
    x43       c45                           297
    x43       c52                           942
    x43       c55                           416
    x43       c63                           551
    x44       obj1                            1
    x44       c15                           283
    x44       c65                           831
    x45       obj1                            1
    x45       c19                           921
    x45       c27                           332
    x45       c31                           812
    x45       c34                           249
    x45       c40                           368
    x45       c46                           468
    x45       c52                           385
    x46       obj1                            1
    x46       c44                           522
    x46       c58                           343
    x47       obj1                            1
    x47       c7                            328
    x47       c9                            193
    x47       c21                           827
    x47       c24                           766
    x47       c27                           404
    x47       c32                           798
    x47       c33                           135
    x47       c42                           530
    x47       c48                           441
    x47       c56                           374
    x47       c64                           364
    x48       obj1                            1
    x48       c17                           801
    x48       c21                           315
    x48       c26                           534
    x48       c40                           171
    x48       c44                           704
    x48       c51                           627
    x48       c55                           966
    x49       obj1                            1
    x49       c12                           581
    x49       c14                           145
    x49       c15                           318
    x49       c16                           557
    x49       c31                           516
    x50       obj1                            1
    x50       c2                            133
    x50       c6                            102
    x50       c18                           811
    x50       c23                           660
    x50       c35                           716
    x50       c36                           645
    x50       c43                           244
    x50       c45                           924
    x50       c46                           736
    x50       c61                           951
    x50       c70                           985
    x51       obj1                            1
    x51       c6                            198
    x51       c33                           347
    x51       c43                           352
    x51       c54                           760
    x51       c58                           598
    x51       c64                           633
    x52       obj1                            1
    x52       c2                            719
    x52       c3                            494
    x52       c5                            899
    x52       c13                           789
    x52       c38                           812
    x52       c55                           720
    x52       c63                           795
    x52       c70                           424
    x53       obj1                            1
    x53       c8                            138
    x53       c9                            253
    x53       c40                           226
    x53       c53                           635
    x53       c65                           487
    x54       obj1                            1
    x54       c33                           388
    x54       c35                           266
    x54       c42                           806
    x54       c45                           978
    x54       c50                           902
    x54       c66                           709
    x55       obj1                            1
    x55       c39                           278
    x55       c49                           754
    x55       c51                           200
    x55       c58                           713
    x56       obj1                            1
    x56       c1                            165
    x56       c10                           193
    x56       c22                           268
    x56       c25                           957
    x56       c26                           688
    x56       c29                           877
    x56       c30                           272
    x56       c39                           613
    x56       c49                           129
    x56       c60                           875
    x56       c64                           647
    x57       obj1                            1
    x57       c17                           961
    x57       c31                           638
    x57       c35                           349
    x57       c45                           279
    x57       c57                           883
    x57       c60                           640
    x58       obj1                            1
    x58       c12                           634
    x58       c22                           862
    x58       c35                           917
    x58       c37                           661
    x58       c38                           110
    x58       c39                           776
    x58       c44                           684
    x58       c54                           323
    x59       obj1                            1
    x59       c11                           441
    x59       c17                           619
    x59       c22                           796
    x59       c24                           813
    x59       c26                           211
    x59       c29                           869
    x59       c30                           100
    x59       c40                           329
    x59       c42                           299
    x59       c48                           611
    x59       c49                           335
    x59       c56                           507
    x59       c64                           275
    x59       c69                           759
    x60       obj1                            1
    x60       c1                            517
    x60       c13                           677
    x60       c23                           785
    x60       c39                           282
    x60       c40                           754
    x60       c45                           622
    x61       obj1                            1
    x61       c10                           459
    x61       c21                           531
    x61       c32                           528
    x61       c68                           526
    x62       obj1                            1
    x62       c22                           146
    x62       c27                           483
    x62       c41                           430
    x62       c51                           836
    x62       c57                           295
    x62       c66                           869
    x63       obj1                            1
    x63       c22                           465
    x63       c25                           168
    x63       c42                           823
    x64       obj1                            1
    x64       c9                            668
    x64       c10                           116
    x64       c16                           839
    x64       c23                           251
    x64       c33                           174
    x64       c61                           860
    x65       obj1                            1
    x65       c10                           178
    x65       c28                           566
    x65       c48                           706
    x65       c50                           760
    x65       c60                           270
    x65       c66                           185
    x65       c69                           922
    x66       obj1                            1
    x66       c14                           615
    x66       c19                           289
    x66       c25                           352
    x66       c38                           766
    x66       c51                           387
    x66       c57                           866
    x66       c63                           325
    x66       c64                           762
    x67       obj1                            1
    x67       c3                            181
    x67       c16                           349
    x67       c19                           456
    x67       c33                           527
    x67       c34                           456
    x67       c49                           807
    x68       obj1                            1
    x68       c55                           201
    x68       c64                           324
    x69       obj1                            1
    x69       c1                            738
    x69       c7                            182
    x69       c10                           892
    x69       c13                           807
    x69       c26                           471
    x69       c51                           411
    x69       c58                           992
    x69       c61                           488
    x70       obj1                            1
    x70       c6                            696
    x70       c9                            667
    x70       c10                           155
    x70       c12                           383
    x70       c18                           422
    x70       c53                           481
    x70       c61                           909
    x70       c65                           957
    x70       c70                           237
    MARK0001  'MARKER'                 'INTEND'
RHS
    rhs       c1                           1942
    rhs       c2                           1409
    rhs       c3                           1096
    rhs       c4                           1285
    rhs       c5                           2041
    rhs       c6                            868
    rhs       c7                            827
    rhs       c8                           2577
    rhs       c9                           1526
    rhs       c10                          2114
    rhs       c11                          1833
    rhs       c12                          1163
    rhs       c13                          2270
    rhs       c14                          1381
    rhs       c15                          1059
    rhs       c16                          1927
    rhs       c17                          1848
    rhs       c18                          1612
    rhs       c19                          2701
    rhs       c20                           752
    rhs       c21                          2127
    rhs       c22                          2306
    rhs       c23                          2704
    rhs       c24                          2263
    rhs       c25                          2734
    rhs       c26                          1566
    rhs       c27                          2450
    rhs       c28                          1593
    rhs       c29                          2513
    rhs       c30                           696
    rhs       c31                          1796
    rhs       c32                          1176
    rhs       c33                           786
    rhs       c34                          1323
    rhs       c35                          2475
    rhs       c36                          2744
    rhs       c37                          2467
    rhs       c38                          2076
    rhs       c39                          2019
    rhs       c40                          1164
    rhs       c41                           870
    rhs       c42                          3137
    rhs       c43                          1441
    rhs       c44                          2212
    rhs       c45                          2596
    rhs       c46                          2828
    rhs       c47                           943
    rhs       c48                          1628
    rhs       c49                          1163
    rhs       c50                          1958
    rhs       c51                          2091
    rhs       c52                          1567
    rhs       c53                          2433
    rhs       c54                          1558
    rhs       c55                          1429
    rhs       c56                          2282
    rhs       c57                          2720
    rhs       c58                          2833
    rhs       c59                          1371
    rhs       c60                          2460
    rhs       c61                          2284
    rhs       c62                          1656
    rhs       c63                          1562
    rhs       c64                          2388
    rhs       c65                          3759
    rhs       c66                          2131
    rhs       c67                          1268
    rhs       c68                           946
    rhs       c69                          2011
    rhs       c70                          2476
BOUNDS
 LI bnd       x1        0
 LI bnd       x2        0
 LI bnd       x3        0
 LI bnd       x4        0
 LI bnd       x5        0
 LI bnd       x6        0
 LI bnd       x7        0
 LI bnd       x8        0
 LI bnd       x9        0
 LI bnd       x10       0
 LI bnd       x11       0
 LI bnd       x12       0
 LI bnd       x13       0
 LI bnd       x14       0
 LI bnd       x15       0
 LI bnd       x16       0
 LI bnd       x17       0
 LI bnd       x18       0
 LI bnd       x19       0
 LI bnd       x20       0
 LI bnd       x21       0
 LI bnd       x22       0
 LI bnd       x23       0
 LI bnd       x24       0
 LI bnd       x25       0
 LI bnd       x26       0
 LI bnd       x27       0
 LI bnd       x28       0
 LI bnd       x29       0
 LI bnd       x30       0
 LI bnd       x31       0
 LI bnd       x32       0
 LI bnd       x33       0
 LI bnd       x34       0
 LI bnd       x35       0
 LI bnd       x36       0
 LI bnd       x37       0
 LI bnd       x38       0
 LI bnd       x39       0
 LI bnd       x40       0
 LI bnd       x41       0
 LI bnd       x42       0
 LI bnd       x43       0
 LI bnd       x44       0
 LI bnd       x45       0
 LI bnd       x46       0
 LI bnd       x47       0
 LI bnd       x48       0
 LI bnd       x49       0
 LI bnd       x50       0
 LI bnd       x51       0
 LI bnd       x52       0
 LI bnd       x53       0
 LI bnd       x54       0
 LI bnd       x55       0
 LI bnd       x56       0
 LI bnd       x57       0
 LI bnd       x58       0
 LI bnd       x59       0
 LI bnd       x60       0
 LI bnd       x61       0
 LI bnd       x62       0
 LI bnd       x63       0
 LI bnd       x64       0
 LI bnd       x65       0
 LI bnd       x66       0
 LI bnd       x67       0
 LI bnd       x68       0
 LI bnd       x69       0
 LI bnd       x70       0
ENDATA
